input = [|122, 178|783, 779|178, 100|800, 902|627, 598|660, 813|912, 716|151, 381|754, 901|994, 768|306, 459|498, 364|671, 753|235, 267|291, 405|710, 796|930, 865|736, 589|779, 731|425, 85|438, 465|317, 112|854, 555|136, 397|602, 578|967, 973|758, 879|171, 166|221, 279|292, 263|937, 933|281, 440|901, 795|109, 129|44, 83|1002, 945|47, 26|330, 155|302, 383|981, 1002|722, 529|871, 876|209, 430|1025, 1010|144, 313|805, 766|373, 107|809, 765|891, 699|426, 217|906, 754|268, 407|771, 641|1008, 917|406, 495|525, 677|101, 429|916, 1035|596, 566|569, 620|351, 454|534, 619|311, 136|721, 938|472, 141|201, 436|277, 316|892, 926|265, 348|244, 387|84, 99|894, 925|1012, 953|821, 557|652, 836|202, 145|1014, 998|812, 627|2, 62|924, 986|827, 927|796, 1027|690, 771|711, 547|160, 270|1018, 919|504, 553|286, 416|484, 358|594, 878|140, 28|579, 729|683, 685|810, 560|242, 403|610, 607|700, 705|328, 66|13, 51|979, 728|];
V = 1039;
A = 100;
E = 1928;
edges = [{16, 1}, {18, 2, 3}, {19, 2, 3, 4}, {20, 3, 4, 5}, {21, 4, 5, 6}, {22, 5, 6, 7}, {8, 23, 6, 7}, {8, 9, 24, 7}, {8, 9, 10, 25}, {26, 9, 10, 11}, {27, 10, 11, 12}, {28, 11, 12, 13}, {29, 12, 13, 14}, {13, 14, 30}, {16, 31, 15}, {16, 1, 32, 15}, {17, 18, 39}, {2, 40, 17, 18, 19}, {3, 41, 18, 19, 20}, {4, 42, 19, 20, 21}, {5, 43, 20, 21, 22}, {6, 44, 21, 22, 23}, {7, 45, 22, 23, 24}, {8, 46, 23, 24, 25}, {9, 47, 24, 25, 26}, {10, 48, 25, 26, 27}, {11, 49, 26, 27, 28}, {12, 50, 27, 28, 29}, {13, 51, 28, 29, 30}, {52, 29, 30, 14}, {32, 15, 54, 31}, {32, 33, 16, 55, 31}, {32, 33, 34, 56}, {33, 34, 35, 57}, {34, 35, 36, 58}, {59, 35, 36, 37}, {36, 37, 38, 60}, {61, 37, 38, 39}, {38, 39, 40, 17, 62}, {39, 40, 41, 18, 63}, {64, 40, 41, 42, 19}, {65, 41, 42, 43, 20}, {66, 42, 43, 44, 21}, {67, 43, 44, 45, 22}, {68, 44, 45, 46, 23}, {69, 45, 46, 47, 24}, {70, 46, 47, 48, 25}, {71, 47, 48, 49, 26}, {72, 48, 49, 50, 27}, {73, 49, 50, 51, 28}, {74, 50, 51, 52, 29}, {75, 51, 52, 53, 30}, {52, 53, 76}, {77, 55, 54, 31}, {32, 78, 54, 55, 56}, {33, 79, 55, 56, 57}, {34, 80, 56, 57, 58}, {35, 81, 57, 58, 59}, {36, 82, 58, 59, 60}, {37, 83, 59, 60, 61}, {38, 84, 60, 61, 62}, {39, 85, 61, 62, 63}, {64, 40, 86, 62, 63}, {64, 65, 41, 87, 63}, {64, 65, 66, 42, 88}, {65, 66, 67, 43, 89}, {66, 67, 68, 44, 90}, {67, 68, 69, 45, 91}, {68, 69, 70, 46, 92}, {69, 70, 71, 47, 93}, {70, 71, 72, 48, 94}, {71, 72, 73, 49, 95}, {96, 72, 73, 74, 50}, {97, 73, 74, 75, 51}, {98, 74, 75, 76, 52}, {99, 75, 76, 53}, {78, 100, 77, 54}, {101, 77, 78, 79, 55}, {102, 78, 79, 80, 56}, {103, 79, 80, 81, 57}, {104, 80, 81, 82, 58}, {105, 81, 82, 83, 59}, {106, 82, 83, 84, 60}, {107, 83, 84, 85, 61}, {108, 84, 85, 86, 62}, {109, 85, 86, 87, 63}, {64, 110, 86, 87, 88}, {65, 111, 87, 88, 89}, {66, 112, 88, 89, 90}, {67, 113, 89, 90, 91}, {68, 114, 90, 91, 92}, {69, 115, 91, 92, 93}, {70, 116, 92, 93, 94}, {71, 117, 93, 94, 95}, {96, 72, 118, 94, 95}, {96, 97, 73, 119, 95}, {96, 97, 98, 74, 120}, {97, 98, 99, 75, 121}, {98, 99, 76, 122}, {101, 125, 100, 77}, {100, 101, 102, 78, 126}, {101, 102, 103, 79, 127}, {128, 102, 103, 104, 80}, {129, 103, 104, 105, 81}, {130, 104, 105, 106, 82}, {131, 105, 106, 107, 83}, {132, 106, 107, 108, 84}, {133, 107, 108, 109, 85}, {134, 108, 109, 110, 86}, {135, 109, 110, 111, 87}, {136, 110, 111, 112, 88}, {137, 111, 112, 113, 89}, {138, 112, 113, 114, 90}, {139, 113, 114, 115, 91}, {140, 114, 115, 116, 92}, {141, 115, 116, 117, 93}, {142, 116, 117, 118, 94}, {143, 117, 118, 119, 95}, {96, 144, 118, 119, 120}, {97, 145, 119, 120, 121}, {98, 146, 120, 121, 122}, {121, 122, 99, 147}, {148, 123, 124}, {123, 124, 125, 149}, {100, 150, 124, 125, 126}, {101, 151, 125, 126, 127}, {128, 102, 152, 126, 127}, {128, 129, 103, 153, 127}, {128, 129, 130, 104, 154}, {129, 130, 131, 105, 155}, {130, 131, 132, 106, 156}, {131, 132, 133, 107, 157}, {132, 133, 134, 108, 158}, {133, 134, 135, 109, 159}, {160, 134, 135, 136, 110}, {161, 135, 136, 137, 111}, {162, 136, 137, 138, 112}, {163, 137, 138, 139, 113}, {164, 138, 139, 140, 114}, {165, 139, 140, 141, 115}, {166, 140, 141, 142, 116}, {167, 141, 142, 143, 117}, {168, 142, 143, 144, 118}, {169, 143, 144, 145, 119}, {170, 144, 145, 146, 120}, {171, 145, 146, 147, 121}, {122, 147, 172, 146}, {176, 123, 148, 149}, {177, 148, 149, 150, 124}, {178, 149, 150, 151, 125}, {179, 150, 151, 152, 126}, {180, 151, 152, 153, 127}, {128, 181, 152, 153, 154}, {129, 182, 153, 154, 155}, {130, 183, 154, 155, 156}, {131, 184, 155, 156, 157}, {132, 185, 156, 157, 158}, {133, 186, 157, 158, 159}, {160, 134, 187, 158, 159}, {160, 161, 135, 188, 159}, {160, 161, 162, 136, 189}, {161, 162, 163, 137, 190}, {162, 163, 164, 138, 191}, {192, 163, 164, 165, 139}, {193, 164, 165, 166, 140}, {194, 165, 166, 167, 141}, {195, 166, 167, 168, 142}, {196, 167, 168, 169, 143}, {197, 168, 169, 170, 144}, {198, 169, 170, 171, 145}, {199, 170, 171, 172, 146}, {200, 171, 172, 173, 147}, {201, 172, 173, 174}, {202, 173, 174, 175}, {203, 174, 175}, {176, 177, 204, 148}, {205, 176, 177, 178, 149}, {206, 177, 178, 179, 150}, {207, 178, 179, 180, 151}, {208, 179, 180, 181, 152}, {209, 180, 181, 182, 153}, {210, 181, 182, 183, 154}, {211, 182, 183, 184, 155}, {212, 183, 184, 185, 156}, {213, 184, 185, 186, 157}, {214, 185, 186, 187, 158}, {215, 186, 187, 188, 159}, {160, 216, 187, 188, 189}, {161, 217, 188, 189, 190}, {162, 218, 189, 190, 191}, {192, 163, 219, 190, 191}, {192, 193, 164, 220, 191}, {192, 193, 194, 165, 221}, {193, 194, 195, 166, 222}, {194, 195, 196, 167, 223}, {224, 195, 196, 197, 168}, {225, 196, 197, 198, 169}, {226, 197, 198, 199, 170}, {227, 198, 199, 200, 171}, {228, 199, 200, 201, 172}, {229, 200, 201, 202, 173}, {230, 201, 202, 203, 174}, {231, 202, 203, 175}, {176, 232, 204, 205}, {233, 204, 205, 206, 177}, {234, 205, 206, 207, 178}, {235, 206, 207, 208, 179}, {236, 207, 208, 209, 180}, {237, 208, 209, 210, 181}, {238, 209, 210, 211, 182}, {239, 210, 211, 212, 183}, {240, 211, 212, 213, 184}, {241, 212, 213, 214, 185}, {242, 213, 214, 215, 186}, {243, 214, 215, 216, 187}, {244, 215, 216, 217, 188}, {245, 216, 217, 218, 189}, {246, 217, 218, 219, 190}, {247, 218, 219, 220, 191}, {192, 248, 219, 220, 221}, {193, 249, 220, 221, 222}, {194, 250, 221, 222, 223}, {224, 195, 251, 222, 223}, {224, 225, 196, 252, 223}, {224, 225, 226, 197, 253}, {225, 226, 227, 198, 254}, {226, 227, 228, 199, 255}, {256, 227, 228, 229, 200}, {257, 228, 229, 230, 201}, {258, 229, 230, 231, 202}, {259, 203, 230, 231}, {232, 233, 204, 260}, {261, 232, 233, 234, 205}, {262, 233, 234, 235, 206}, {263, 234, 235, 236, 207}, {264, 235, 236, 237, 208}, {265, 236, 237, 238, 209}, {266, 237, 238, 239, 210}, {267, 238, 239, 240, 211}, {268, 239, 240, 241, 212}, {269, 240, 241, 242, 213}, {270, 241, 242, 243, 214}, {271, 242, 243, 244, 215}, {272, 243, 244, 245, 216}, {273, 244, 245, 246, 217}, {274, 245, 246, 247, 218}, {275, 246, 247, 248, 219}, {276, 247, 248, 249, 220}, {277, 248, 249, 250, 221}, {278, 249, 250, 251, 222}, {279, 250, 251, 252, 223}, {224, 280, 251, 252, 253}, {225, 281, 252, 253, 254}, {226, 282, 253, 254, 255}, {256, 227, 283, 254, 255}, {256, 257, 228, 284, 255}, {256, 257, 258, 229, 285}, {257, 258, 259, 230, 286}, {258, 259, 287, 231}, {232, 288, 260, 261}, {289, 260, 261, 262, 233}, {290, 261, 262, 263, 234}, {291, 262, 263, 264, 235}, {292, 263, 264, 265, 236}, {293, 264, 265, 266, 237}, {294, 265, 266, 267, 238}, {295, 266, 267, 268, 239}, {296, 267, 268, 269, 240}, {297, 268, 269, 270, 241}, {298, 269, 270, 271, 242}, {299, 270, 271, 272, 243}, {300, 271, 272, 273, 244}, {301, 272, 273, 274, 245}, {302, 273, 274, 275, 246}, {303, 274, 275, 276, 247}, {304, 275, 276, 277, 248}, {305, 276, 277, 278, 249}, {306, 277, 278, 279, 250}, {307, 278, 279, 280, 251}, {308, 279, 280, 281, 252}, {309, 280, 281, 282, 253}, {310, 281, 282, 283, 254}, {311, 282, 283, 284, 255}, {256, 312, 283, 284, 285}, {257, 313, 284, 285, 286}, {258, 314, 285, 286, 287}, {315, 259, 286, 287}, {288, 289, 260, 316}, {288, 289, 290, 261, 317}, {289, 290, 291, 262, 318}, {290, 291, 292, 263, 319}, {320, 291, 292, 293, 264}, {321, 292, 293, 294, 265}, {322, 293, 294, 295, 266}, {323, 294, 295, 296, 267}, {324, 295, 296, 297, 268}, {325, 296, 297, 298, 269}, {326, 297, 298, 299, 270}, {327, 298, 299, 300, 271}, {328, 299, 300, 301, 272}, {329, 300, 301, 302, 273}, {330, 301, 302, 303, 274}, {331, 302, 303, 304, 275}, {332, 303, 304, 305, 276}, {333, 304, 305, 306, 277}, {334, 305, 306, 307, 278}, {335, 306, 307, 308, 279}, {336, 307, 308, 309, 280}, {337, 308, 309, 310, 281}, {338, 309, 310, 311, 282}, {339, 310, 311, 312, 283}, {340, 311, 312, 313, 284}, {341, 312, 313, 314, 285}, {342, 313, 314, 315, 286}, {314, 315, 343, 287}, {288, 316, 317}, {289, 344, 316, 317, 318}, {290, 345, 317, 318, 319}, {320, 291, 346, 318, 319}, {320, 321, 292, 347, 319}, {320, 321, 322, 293, 348}, {321, 322, 323, 294, 349}, {322, 323, 324, 295, 350}, {323, 324, 325, 296, 351}, {352, 324, 325, 326, 297}, {353, 325, 326, 327, 298}, {354, 326, 327, 328, 299}, {355, 327, 328, 329, 300}, {356, 328, 329, 330, 301}, {357, 329, 330, 331, 302}, {358, 330, 331, 332, 303}, {359, 331, 332, 333, 304}, {360, 332, 333, 334, 305}, {361, 333, 334, 335, 306}, {362, 334, 335, 336, 307}, {363, 335, 336, 337, 308}, {364, 336, 337, 338, 309}, {365, 337, 338, 339, 310}, {366, 338, 339, 340, 311}, {367, 339, 340, 341, 312}, {368, 340, 341, 342, 313}, {369, 341, 342, 343, 314}, {315, 342, 343}, {344, 345, 370, 317}, {371, 344, 345, 346, 318}, {372, 345, 346, 347, 319}, {320, 373, 346, 347, 348}, {321, 374, 347, 348, 349}, {322, 375, 348, 349, 350}, {323, 376, 349, 350, 351}, {352, 324, 377, 350, 351}, {352, 353, 325, 378, 351}, {352, 353, 354, 326, 379}, {353, 354, 355, 327, 380}, {354, 355, 356, 328, 381}, {355, 356, 357, 329, 382}, {356, 357, 358, 330, 383}, {384, 357, 358, 359, 331}, {385, 358, 359, 360, 332}, {386, 359, 360, 361, 333}, {387, 360, 361, 362, 334}, {388, 361, 362, 363, 335}, {389, 362, 363, 364, 336}, {390, 363, 364, 365, 337}, {391, 364, 365, 366, 338}, {392, 365, 366, 367, 339}, {393, 366, 367, 368, 340}, {394, 367, 368, 369, 341}, {368, 369, 342}, {344, 370, 371}, {395, 370, 371, 372, 345}, {396, 371, 372, 373, 346}, {397, 372, 373, 374, 347}, {398, 373, 374, 375, 348}, {399, 374, 375, 376, 349}, {400, 375, 376, 377, 350}, {401, 376, 377, 378, 351}, {352, 402, 377, 378, 379}, {353, 403, 378, 379, 380}, {354, 404, 379, 380, 381}, {355, 405, 380, 381, 382}, {356, 406, 381, 382, 383}, {384, 357, 407, 382, 383}, {384, 385, 358, 408, 383}, {384, 385, 386, 359, 409}, {385, 386, 387, 360, 410}, {386, 387, 388, 361, 411}, {387, 388, 389, 362, 412}, {388, 389, 390, 363, 413}, {389, 390, 391, 364, 414}, {390, 391, 392, 365, 415}, {416, 391, 392, 393, 366}, {417, 392, 393, 394, 367}, {368, 393, 394, 418}, {371, 395, 396, 419}, {420, 395, 396, 397, 372}, {421, 396, 397, 398, 373}, {422, 397, 398, 399, 374}, {423, 398, 399, 400, 375}, {424, 399, 400, 401, 376}, {425, 400, 401, 402, 377}, {426, 401, 402, 403, 378}, {427, 402, 403, 404, 379}, {428, 403, 404, 405, 380}, {429, 404, 405, 406, 381}, {430, 405, 406, 407, 382}, {431, 406, 407, 408, 383}, {384, 432, 407, 408, 409}, {385, 433, 408, 409, 410}, {386, 434, 409, 410, 411}, {387, 435, 410, 411, 412}, {388, 436, 411, 412, 413}, {389, 437, 412, 413, 414}, {390, 438, 413, 414, 415}, {416, 391, 439, 414, 415}, {416, 417, 392, 440, 415}, {416, 417, 418, 393, 441}, {442, 417, 418, 394}, {420, 419, 395}, {396, 419, 420, 421}, {422, 420, 421, 397}, {398, 421, 422, 423}, {422, 423, 424, 399, 444}, {423, 424, 425, 400, 445}, {424, 425, 426, 401, 446}, {425, 426, 427, 402, 447}, {448, 426, 427, 428, 403}, {449, 427, 428, 429, 404}, {450, 428, 429, 430, 405}, {451, 429, 430, 431, 406}, {452, 430, 431, 432, 407}, {453, 431, 432, 433, 408}, {454, 432, 433, 434, 409}, {455, 433, 434, 435, 410}, {456, 434, 435, 436, 411}, {457, 435, 436, 437, 412}, {458, 436, 437, 438, 413}, {459, 437, 438, 439, 414}, {460, 438, 439, 440, 415}, {416, 461, 439, 440, 441}, {417, 462, 440, 441, 442}, {418, 463, 441, 442, 443}, {464, 442, 443}, {444, 445, 423}, {424, 444, 445, 446}, {425, 466, 445, 446, 447}, {448, 426, 467, 446, 447}, {448, 449, 427, 468, 447}, {448, 449, 450, 428, 469}, {449, 450, 451, 429, 470}, {450, 451, 452, 430, 471}, {451, 452, 453, 431, 472}, {452, 453, 454, 432, 473}, {453, 454, 455, 433, 474}, {454, 455, 456, 434, 475}, {455, 456, 457, 435, 476}, {456, 457, 458, 436, 477}, {457, 458, 459, 437, 478}, {458, 459, 460, 438, 479}, {480, 459, 460, 461, 439}, {481, 460, 461, 462, 440}, {482, 461, 462, 463, 441}, {464, 442, 462, 463}, {464, 465, 443, 463}, {464, 465}, {466, 467, 446}, {466, 467, 468, 447}, {448, 467, 468, 469}, {449, 468, 469, 470}, {450, 469, 470, 471}, {472, 451, 470, 471}, {472, 473, 452, 471}, {472, 473, 474, 453}, {483, 454, 473, 474, 475}, {484, 455, 474, 475, 476}, {485, 456, 475, 476, 477}, {486, 457, 476, 477, 478}, {458, 477, 478, 479}, {480, 459, 478, 479}, {480, 481, 460, 479}, {480, 481, 482, 461}, {481, 482, 462}, {474, 483, 484, 487}, {483, 484, 485, 488, 475}, {484, 485, 486, 489, 476}, {485, 490, 477, 486}, {488, 483, 491, 487}, {484, 487, 488, 489, 492}, {485, 488, 489, 490, 493}, {489, 490, 486, 494}, {495, 491, 492, 487}, {488, 491, 492, 493, 496}, {489, 492, 493, 494, 497}, {490, 498, 493, 494}, {496, 491, 501, 495}, {492, 495, 496, 497, 502}, {493, 496, 497, 498, 503}, {504, 497, 498, 494}, {499, 500, 509}, {499, 500, 501, 510}, {495, 500, 501, 502, 511}, {512, 496, 501, 502, 503}, {513, 497, 502, 503, 504}, {514, 498, 503, 504, 505}, {504, 505, 506, 515}, {505, 506, 507, 516}, {506, 507, 508, 517}, {507, 508, 518}, {530, 499, 509, 510}, {531, 500, 509, 510, 511}, {512, 532, 501, 510, 511}, {512, 513, 533, 502, 511}, {512, 513, 514, 534, 503}, {513, 514, 515, 535, 504}, {514, 515, 516, 536, 505}, {515, 516, 517, 537, 506}, {516, 517, 518, 538, 507}, {539, 508, 517, 518}, {520, 541, 519}, {520, 521, 542, 519}, {520, 521, 522, 543}, {544, 521, 522, 523}, {545, 522, 523, 524}, {546, 523, 524, 525}, {547, 524, 525, 526}, {548, 525, 526, 527}, {528, 549, 526, 527}, {528, 529, 550, 527}, {528, 529, 530, 551}, {552, 529, 530, 531, 509}, {553, 530, 531, 532, 510}, {554, 531, 532, 533, 511}, {512, 555, 532, 533, 534}, {513, 556, 533, 534, 535}, {514, 557, 534, 535, 536}, {515, 558, 535, 536, 537}, {516, 559, 536, 537, 538}, {517, 560, 537, 538, 539}, {518, 561, 538, 539, 540}, {562, 539, 540}, {566, 541, 542, 519}, {520, 567, 541, 542, 543}, {544, 521, 568, 542, 543}, {544, 545, 522, 569, 543}, {544, 545, 546, 523, 570}, {545, 546, 547, 524, 571}, {546, 547, 548, 525, 572}, {547, 548, 549, 526, 573}, {548, 549, 550, 527, 574}, {549, 550, 551, 528, 575}, {576, 550, 551, 552, 529}, {577, 551, 552, 553, 530}, {578, 552, 553, 554, 531}, {579, 553, 554, 555, 532}, {580, 554, 555, 556, 533}, {581, 555, 556, 557, 534}, {582, 556, 557, 558, 535}, {583, 557, 558, 559, 536}, {584, 558, 559, 560, 537}, {585, 559, 560, 561, 538}, {586, 560, 561, 562, 539}, {587, 561, 562, 563, 540}, {562, 563, 564, 588}, {589, 563, 564, 565}, {564, 565, 590}, {591, 541, 566, 567}, {592, 566, 567, 568, 542}, {593, 567, 568, 569, 543}, {544, 594, 568, 569, 570}, {545, 595, 569, 570, 571}, {546, 596, 570, 571, 572}, {547, 597, 571, 572, 573}, {548, 598, 572, 573, 574}, {549, 599, 573, 574, 575}, {576, 550, 600, 574, 575}, {576, 577, 551, 601, 575}, {576, 577, 578, 552, 602}, {577, 578, 579, 553, 603}, {578, 579, 580, 554, 604}, {579, 580, 581, 555, 605}, {580, 581, 582, 556, 606}, {581, 582, 583, 557, 607}, {608, 582, 583, 584, 558}, {609, 583, 584, 585, 559}, {610, 584, 585, 586, 560}, {611, 585, 586, 587, 561}, {612, 586, 587, 588, 562}, {613, 587, 588, 589, 563}, {614, 588, 589, 590, 564}, {589, 565, 590, 615}, {592, 617, 566, 591}, {618, 591, 592, 593, 567}, {619, 592, 593, 594, 568}, {620, 593, 594, 595, 569}, {621, 594, 595, 596, 570}, {622, 595, 596, 597, 571}, {623, 596, 597, 598, 572}, {624, 597, 598, 599, 573}, {625, 598, 599, 600, 574}, {626, 599, 600, 601, 575}, {576, 627, 600, 601, 602}, {577, 628, 601, 602, 603}, {578, 629, 602, 603, 604}, {579, 630, 603, 604, 605}, {580, 631, 604, 605, 606}, {581, 632, 605, 606, 607}, {608, 582, 633, 606, 607}, {608, 609, 583, 634, 607}, {608, 609, 610, 584, 635}, {609, 610, 611, 585, 636}, {610, 611, 612, 586, 637}, {611, 612, 613, 587, 638}, {612, 613, 614, 588, 639}, {640, 613, 614, 615, 589}, {641, 614, 590, 615}, {616, 617, 642}, {643, 616, 617, 618, 591}, {644, 617, 618, 619, 592}, {645, 618, 619, 620, 593}, {646, 619, 620, 621, 594}, {647, 620, 621, 622, 595}, {648, 621, 622, 623, 596}, {649, 622, 623, 624, 597}, {650, 623, 624, 625, 598}, {651, 624, 625, 626, 599}, {652, 625, 626, 627, 600}, {653, 626, 627, 628, 601}, {654, 627, 628, 629, 602}, {655, 628, 629, 630, 603}, {656, 629, 630, 631, 604}, {657, 630, 631, 632, 605}, {658, 631, 632, 633, 606}, {659, 632, 633, 634, 607}, {608, 660, 633, 634, 635}, {609, 661, 634, 635, 636}, {610, 662, 635, 636, 637}, {611, 663, 636, 637, 638}, {612, 664, 637, 638, 639}, {640, 613, 665, 638, 639}, {640, 641, 614, 666, 639}, {640, 641, 667, 615}, {616, 642, 643, 671}, {672, 642, 643, 644, 617}, {673, 643, 644, 645, 618}, {674, 644, 645, 646, 619}, {675, 645, 646, 647, 620}, {676, 646, 647, 648, 621}, {677, 647, 648, 649, 622}, {678, 648, 649, 650, 623}, {679, 649, 650, 651, 624}, {680, 650, 651, 652, 625}, {681, 651, 652, 653, 626}, {682, 652, 653, 654, 627}, {683, 653, 654, 655, 628}, {684, 654, 655, 656, 629}, {685, 655, 656, 657, 630}, {686, 656, 657, 658, 631}, {687, 657, 658, 659, 632}, {688, 658, 659, 660, 633}, {689, 659, 660, 661, 634}, {690, 660, 661, 662, 635}, {691, 661, 662, 663, 636}, {692, 662, 663, 664, 637}, {693, 663, 664, 665, 638}, {694, 664, 665, 666, 639}, {640, 695, 665, 666, 667}, {696, 641, 666, 667}, {709, 668, 669}, {710, 668, 669, 670}, {711, 669, 670, 671}, {672, 642, 712, 670, 671}, {672, 673, 643, 713, 671}, {672, 673, 674, 644, 714}, {673, 674, 675, 645, 715}, {674, 675, 676, 646, 716}, {675, 676, 677, 647, 717}, {676, 677, 678, 648, 718}, {677, 678, 679, 649, 719}, {678, 679, 680, 650, 720}, {679, 680, 681, 651, 721}, {680, 681, 682, 652, 722}, {681, 682, 683, 653, 723}, {682, 683, 684, 654, 724}, {683, 684, 685, 655, 725}, {684, 685, 686, 656, 726}, {685, 686, 687, 657, 727}, {686, 687, 688, 658, 728}, {687, 688, 689, 659, 729}, {688, 689, 690, 660, 730}, {689, 690, 691, 661, 731}, {690, 691, 692, 662, 732}, {691, 692, 693, 663, 733}, {692, 693, 694, 664, 734}, {693, 694, 695, 665, 735}, {736, 694, 695, 696, 666}, {737, 695, 696, 697, 667}, {696, 697, 738}, {698, 699, 741}, {698, 699, 700, 742}, {699, 700, 701, 743}, {744, 700, 701, 702}, {745, 701, 702, 703}, {704, 746, 702, 703}, {704, 705, 747, 703}, {704, 705, 706, 748}, {705, 706, 707, 749}, {706, 707, 708, 750}, {707, 708}, {668, 709, 710, 751}, {709, 710, 711, 752, 669}, {710, 711, 712, 753, 670}, {711, 712, 713, 754, 671}, {672, 712, 713, 714, 755}, {673, 713, 714, 715, 756}, {674, 714, 715, 716, 757}, {675, 715, 716, 717, 758}, {676, 716, 717, 718, 759}, {677, 717, 718, 719, 760}, {678, 718, 719, 720, 761}, {679, 719, 720, 721, 762}, {680, 720, 721, 722, 763}, {681, 721, 722, 723, 764}, {682, 722, 723, 724, 765}, {683, 723, 724, 725, 766}, {684, 724, 725, 726, 767}, {768, 685, 725, 726, 727}, {769, 686, 726, 727, 728}, {770, 687, 727, 728, 729}, {771, 688, 728, 729, 730}, {772, 689, 729, 730, 731}, {773, 690, 730, 731, 732}, {774, 691, 731, 732, 733}, {775, 692, 732, 733, 734}, {776, 693, 733, 734, 735}, {736, 777, 694, 734, 735}, {736, 737, 778, 695, 735}, {736, 737, 738, 779, 696}, {737, 738, 739, 780, 697}, {738, 739, 740, 781}, {739, 740, 741, 782}, {740, 741, 742, 783, 698}, {741, 742, 743, 784, 699}, {742, 743, 744, 785, 700}, {743, 744, 745, 786, 701}, {744, 745, 746, 787, 702}, {745, 746, 747, 788, 703}, {704, 746, 747, 748, 789}, {705, 747, 748, 749, 790}, {706, 748, 749, 750, 791}, {792, 707, 749, 750}, {752, 794, 709, 751}, {710, 751, 752, 753, 795}, {711, 752, 753, 754, 796}, {712, 753, 754, 755, 797}, {713, 754, 755, 756, 798}, {714, 755, 756, 757, 799}, {800, 715, 756, 757, 758}, {801, 716, 757, 758, 759}, {802, 717, 758, 759, 760}, {803, 718, 759, 760, 761}, {804, 719, 760, 761, 762}, {805, 720, 761, 762, 763}, {806, 721, 762, 763, 764}, {807, 722, 763, 764, 765}, {808, 723, 764, 765, 766}, {809, 724, 765, 766, 767}, {768, 810, 725, 766, 767}, {768, 769, 726, 767}, {768, 769, 770, 811, 727}, {769, 770, 771, 812, 728}, {770, 771, 772, 813, 729}, {771, 772, 773, 814, 730}, {772, 773, 774, 815, 731}, {773, 774, 775, 816, 732}, {774, 775, 776, 817, 733}, {775, 776, 777, 818, 734}, {776, 777, 778, 819, 735}, {736, 777, 778, 779, 820}, {737, 778, 779, 780, 821}, {738, 779, 780, 781, 822}, {739, 780, 781, 782}, {740, 781, 782, 783}, {741, 782, 783, 784, 823}, {742, 783, 784, 785, 824}, {743, 784, 785, 786, 825}, {744, 785, 786, 787, 826}, {745, 786, 787, 788, 827}, {746, 787, 788, 789, 828}, {747, 788, 789, 790, 829}, {748, 789, 790, 791, 830}, {749, 790, 791, 792, 831}, {832, 750, 791, 792, 793}, {792, 793, 833}, {794, 795, 751}, {834, 752, 794, 795, 796}, {835, 753, 795, 796, 797}, {836, 754, 796, 797, 798}, {837, 755, 797, 798, 799}, {800, 838, 756, 798, 799}, {800, 801, 839, 757, 799}, {800, 801, 802, 840, 758}, {801, 802, 803, 841, 759}, {802, 803, 804, 842, 760}, {803, 804, 805, 843, 761}, {804, 805, 806, 844, 762}, {805, 806, 807, 845, 763}, {806, 807, 808, 846, 764}, {807, 808, 809, 847, 765}, {808, 809, 810, 848, 766}, {809, 810, 767}, {769, 811, 812}, {770, 811, 812, 813, 849}, {771, 812, 813, 814, 850}, {772, 813, 814, 815, 851}, {773, 814, 815, 816, 852}, {774, 815, 816, 817, 853}, {775, 816, 817, 818, 854}, {776, 817, 818, 819, 855}, {777, 818, 819, 820, 856}, {778, 819, 820, 821, 857}, {779, 820, 821, 822, 858}, {780, 821, 822}, {824, 783, 823}, {784, 823, 824, 825, 859}, {785, 824, 825, 826, 860}, {786, 825, 826, 827, 861}, {787, 826, 827, 828, 862}, {788, 827, 828, 829, 863}, {864, 789, 828, 829, 830}, {865, 790, 829, 830, 831}, {832, 866, 791, 830, 831}, {832, 833, 867, 792, 831}, {832, 833, 868, 793}, {835, 834, 795, 869}, {834, 835, 836, 870, 796}, {835, 836, 837, 871, 797}, {836, 837, 838, 872, 798}, {837, 838, 839, 873, 799}, {800, 838, 839, 840, 874}, {801, 839, 840, 841, 875}, {802, 840, 841, 842, 876}, {803, 841, 842, 843, 877}, {804, 842, 843, 844, 878}, {805, 843, 844, 845, 879}, {806, 844, 845, 846, 880}, {807, 845, 846, 847, 881}, {808, 846, 847, 848, 882}, {848, 809, 883, 847}, {884, 849, 850, 812}, {813, 849, 850, 851, 885}, {814, 850, 851, 852, 886}, {815, 851, 852, 853, 887}, {816, 852, 853, 854}, {817, 853, 854, 855}, {856, 818, 854, 855}, {819, 888, 855, 856, 857}, {820, 856, 857, 858, 889}, {857, 858, 821, 890}, {824, 891, 859, 860}, {860, 825, 859, 892, 861}, {861, 826, 860, 893, 862}, {862, 827, 861, 894, 863}, {864, 863, 828, 862, 895}, {864, 865, 896, 829, 863}, {864, 865, 866, 897, 830}, {865, 866, 867, 898, 831}, {832, 866, 867, 868, 899}, {833, 867, 868, 900}, {834, 869, 870, 901}, {835, 869, 902, 870, 871}, {836, 870, 903, 872, 871}, {837, 871, 872, 873, 904}, {838, 872, 873, 874, 905}, {839, 873, 874, 875, 906}, {840, 874, 875, 876, 907}, {841, 875, 876, 877, 908}, {842, 876, 877, 878, 909}, {843, 877, 910, 878, 879}, {844, 878, 911, 880, 879}, {845, 879, 880, 881, 912}, {846, 880, 881, 882, 913}, {847, 881, 882, 883, 914}, {848, 882, 883, 915}, {849, 884, 885}, {850, 916, 884, 885, 886}, {887, 851, 917, 885, 886}, {918, 852, 886, 887}, {888, 889, 856, 919}, {920, 888, 857, 890, 889}, {889, 890, 921, 858}, {859, 891, 892, 922}, {891, 860, 923, 892, 893}, {924, 893, 892, 861, 894}, {893, 894, 925, 862, 895}, {896, 926, 895, 894, 863}, {896, 897, 864, 895, 927}, {896, 897, 898, 865, 928}, {929, 897, 898, 899, 866}, {930, 867, 898, 899, 900}, {868, 899, 900, 931}, {869, 932, 901, 902}, {933, 870, 901, 902, 903}, {934, 871, 904, 902, 903}, {935, 904, 905, 872, 903}, {904, 905, 906, 873, 936}, {937, 905, 906, 907, 874}, {938, 875, 906, 907, 908}, {939, 876, 907, 908, 909}, {940, 877, 908, 909, 910}, {941, 878, 909, 910, 911}, {942, 879, 912, 910, 911}, {943, 912, 913, 880, 911}, {912, 913, 914, 881, 944}, {945, 913, 914, 915, 882}, {883, 946, 914, 915}, {947, 916, 885, 917}, {948, 916, 918, 917, 886}, {949, 917, 918, 887}, {888, 920, 952, 919}, {920, 889, 921, 919}, {920, 921, 890}, {922, 891, 923}, {924, 922, 923, 892}, {925, 953, 923, 924, 893}, {894, 954, 924, 925, 926}, {895, 955, 925, 926, 927}, {896, 928, 956, 926, 927}, {928, 897, 929, 957, 927}, {928, 929, 898, 930, 958}, {929, 930, 899, 931, 959}, {960, 930, 931, 900}, {962, 932, 901, 933}, {963, 932, 933, 934, 902}, {964, 933, 934, 935, 903}, {965, 934, 935, 904, 936}, {966, 935, 936, 905, 937}, {967, 936, 937, 906, 938}, {968, 937, 938, 907, 939}, {969, 938, 939, 940, 908}, {970, 939, 940, 909, 941}, {971, 940, 941, 942, 910}, {972, 941, 942, 943, 911}, {973, 942, 943, 912, 944}, {974, 943, 944, 913, 945}, {975, 944, 945, 914, 946}, {976, 945, 946, 915}, {977, 948, 947, 916}, {978, 947, 948, 917, 949}, {979, 948, 949, 950, 918}, {980, 949, 950}, {952, 982, 951}, {952, 951, 983, 919}, {984, 953, 954, 924}, {953, 954, 955, 985, 925}, {954, 986, 955, 956, 926}, {987, 955, 956, 957, 927}, {928, 956, 988, 957, 958}, {929, 957, 958, 959}, {960, 930, 958, 959}, {960, 961, 931, 989, 959}, {960, 961, 990}, {962, 963, 932}, {962, 963, 964, 933}, {963, 964, 965, 934}, {964, 965, 966, 935}, {936, 965, 966, 967}, {992, 966, 967, 968, 937}, {993, 967, 968, 969, 938}, {994, 968, 969, 970, 939}, {995, 969, 970, 971, 940}, {996, 970, 971, 972, 941}, {997, 971, 972, 973, 942}, {998, 972, 973, 974, 943}, {999, 973, 974, 975, 944}, {1000, 974, 975, 976, 945}, {976, 1001, 946, 975}, {977, 978, 947, 1003}, {1004, 977, 978, 979, 948}, {1005, 978, 979, 980, 949}, {1006, 979, 980, 981, 950}, {980, 981, 982}, {1007, 951, 981, 982, 983}, {952, 1008, 982, 983}, {984, 953, 985, 1009}, {986, 1010, 984, 985, 954}, {987, 1011, 985, 986, 955}, {956, 1012, 986, 987, 988}, {987, 988, 957}, {960, 989, 990}, {961, 989, 990, 991}, {990, 991}, {992, 993, 967}, {968, 993, 994, 992}, {969, 994, 995, 993}, {994, 970, 995, 996}, {971, 996, 997, 995}, {996, 972, 997, 998}, {997, 998, 999, 973, 1013}, {998, 999, 1000, 974, 1014}, {999, 1000, 1001, 975, 1015}, {976, 1001, 1000, 1016}, {1017, 1002, 1003}, {1002, 1003, 1004, 977, 1018}, {1003, 1004, 1005, 978, 1019}, {1004, 1005, 1006, 979, 1020}, {980, 1005, 1006}, {1008, 982, 1007}, {1008, 1007, 1021, 983}, {984, 1009, 1010, 1022}, {1009, 1010, 1011, 985, 1023}, {1024, 1010, 1011, 1012, 986}, {1025, 987, 1012, 1011}, {1026, 1013, 998, 1014}, {1027, 999, 1013, 1014, 1015}, {1028, 1000, 1014, 1015, 1016}, {1016, 1001, 1029, 1015}, {1017, 1002, 1018, 1033}, {1034, 1003, 1017, 1018, 1019}, {1018, 1019, 1004, 1020}, {1019, 1020, 1005}, {1008, 1035, 1021}, {1009, 1036, 1022, 1023}, {1024, 1037, 1010, 1022, 1023}, {1024, 1025, 1038, 1011, 1023}, {1024, 1025, 1012, 1039}, {1026, 1027, 1013}, {1026, 1027, 1028, 1014}, {1027, 1028, 1029, 1015}, {1016, 1028, 1029, 1030}, {1029, 1030, 1031}, {1032, 1030, 1031}, {1032, 1033, 1031}, {1032, 1033, 1034, 1017}, {1033, 1034, 1018}, {1035, 1021}, {1036, 1037, 1022}, {1036, 1037, 1038, 1023}, {1024, 1037, 1038, 1039}, {1025, 1038, 1039}];
maxTime = 26